
******************************************************************************
This program contains Ipopt, a library for large-scale nonlinear optimization.
 Ipopt is released as open source code under the Eclipse Public License (EPL).
         For more information visit http://projects.coin-or.org/Ipopt

This version of Ipopt was compiled from source code available at
    https://github.com/IDAES/Ipopt as part of the Institute for the Design of
    Advanced Energy Systems Process Systems Engineering Framework (IDAES PSE
    Framework) Copyright (c) 2018-2019. See https://github.com/IDAES/idaes-pse.

This version of Ipopt was compiled using HSL, a collection of Fortran codes
    for large-scale scientific computation.  All technical papers, sales and
    publicity material resulting from use of the HSL codes within IPOPT must
    contain the following acknowledgement:
        HSL, a collection of Fortran codes for large-scale scientific
        computation. See http://www.hsl.rl.ac.uk.
******************************************************************************

This is Ipopt version 3.13.2, running with linear solver ma27.

Number of nonzeros in equality constraint Jacobian...:      808
Number of nonzeros in inequality constraint Jacobian.:        0
Number of nonzeros in Lagrangian Hessian.............:      702

Total number of variables............................:      351
                     variables with only lower bounds:      108
                variables with lower and upper bounds:      189
                     variables with only upper bounds:        0
Total number of equality constraints.................:      350
Total number of inequality constraints...............:        0
        inequality constraints with only lower bounds:        0
   inequality constraints with lower and upper bounds:        0
        inequality constraints with only upper bounds:        0

iter    objective    inf_pr   inf_du lg(mu)  ||d||  lg(rg) alpha_du alpha_pr  ls
   0  0.0000000e+00 4.48e-01 8.88e-16  -1.0 0.00e+00    -  0.00e+00 0.00e+00   0
   1  3.5123344e+00 5.76e-01 3.33e+04  -1.0 2.60e+05    -  5.51e-01 4.41e-01h  1
   2  3.7116409e+00 5.63e-01 3.26e+04  -1.0 1.70e+05    -  7.89e-01 1.96e-02h  1
   3  6.8737381e+00 4.26e-01 2.63e+04  -1.0 2.26e+05    -  7.86e-01 2.39e-01h  1
   4  2.8198378e+01 2.33e-02 3.40e+03  -1.0 1.83e+05    -  8.31e-01 9.90e-01h  1
   5  3.1323723e+01 3.78e-04 1.95e+02  -1.0 1.92e+04    -  9.77e-01 9.90e-01h  1
   6  3.1385273e+01 3.86e-06 6.98e+00  -1.0 3.66e+02    -  9.90e-01 9.90e-01h  1
   7  3.1471331e+01 4.10e-05 1.37e+03  -1.0 1.12e+03    -  9.90e-01 9.90e-01H  1
   8  3.1449239e+01 6.57e-05 5.29e+07  -2.5 1.31e+03    -  9.97e-01 2.17e-01f  3
   9  3.1385014e+01 1.62e-05 3.95e+05  -2.5 8.21e+02    -  1.00e+00 9.97e-01H  1
iter    objective    inf_pr   inf_du lg(mu)  ||d||  lg(rg) alpha_du alpha_pr  ls
  10  3.1384973e+01 4.47e-08 8.66e+07  -2.5 5.14e-01    -  1.00e+00 9.97e-01h  1
  11  3.1384973e+01 1.27e-10 3.06e+10  -2.5 1.96e-04    -  1.00e+00 9.97e-01h  1
In iteration 11, 27 Slacks too small, adjusting variable bounds
  12  3.1384973e+01 2.91e-12 1.08e+13  -2.5 8.09e-07    -  1.00e+00 9.97e-01h  1
  13  3.1384973e+01 3.36e-12 1.11e-01  -2.5 4.60e-07    -  1.00e+00 1.00e+00h  1
  14  3.1384968e+01 2.67e-12 1.09e+13  -9.0 3.67e+01    -  1.00e+00 1.94e-03f 10
  15  3.1382132e+01 1.82e-12 2.89e-03  -9.0 3.64e+01    -  1.00e+00 1.00e+00F  1
  16  3.1382132e+01 9.43e-13 4.66e-10  -9.0 1.87e-05    -  1.00e+00 1.00e+00h  1

Number of Iterations....: 16

                                   (scaled)                 (unscaled)
Objective...............:   3.1382131830607790e+01    3.1382131830607790e+01
Dual infeasibility......:   4.6566128730773926e-10    4.6566128730773926e-10
Constraint violation....:   9.4330099287276425e-13    9.4330099287276425e-13
Complementarity.........:   9.0909090994732403e-10    9.0909090994732403e-10
Overall NLP error.......:   9.4330099287276425e-13    9.0909090994732403e-10


Number of objective function evaluations             = 38
Number of objective gradient evaluations             = 17
Number of equality constraint evaluations            = 38
Number of inequality constraint evaluations          = 0
Number of equality constraint Jacobian evaluations   = 17
Number of inequality constraint Jacobian evaluations = 0
Number of Lagrangian Hessian evaluations             = 16
Total CPU secs in IPOPT (w/o function evaluations)   =      0.039
Total CPU secs in NLP function evaluations           =      0.418

EXIT: Optimal Solution Found.
